NAME: br17.12.sop
TYPE: SOP
COMMENT: br17.atsp plus random precedences (Norbert Ascheuer)
DIMENSION: 18
EDGE_WEIGHT_TYPE: EXPLICIT
EDGE_WEIGHT_FORMAT: FULL_MATRIX 
EDGE_WEIGHT_SECTION
18 
  0   3   5  48  48   8   8   5   5   3   3   0   3   5   8   8   5 1000000 
 -1   0   3  48  -1  -1   8   5  -1   0   0   3   0   3   8  -1   5   3 
 -1   3   0  72  -1  48  48  24  -1  -1   3   5   3   0  48  -1  24   5 
 -1  48  74   0   0   6   6  12  -1  48  48  48  48  74   6   6  12  48 
 -1  48  74   0   0   6   6  12  -1  48  48  48  48  74   6   6  12  48 
 -1   8  50   6   6   0   0   8   8   8   8   8   8  50   0   0   8   8 
 -1   8  50   6   6   0   0   8   8   8   8   8   8  50   0   0   8   8 
 -1   5  26  12  12  -1   8   0   0   5   5   5  -1  26   8   8   0   5 
 -1   5  26  12  12   8   8   0   0   5   5   5   5  26   8   8   0   5 
 -1   0   3  48  -1   8   8   5  -1   0   0   3   0   3   8   8   5   3 
 -1   0   3  48  48   8   8   5   5   0   0   3   0   3   8   8   5   3 
 -1   3   5  48  48   8   8   5   5   3   3   0   3   5   8   8   5   0 
 -1   0   3  48  48  -1   8   5   5   0   0   3   0   3   8   8   5   3 
 -1   3   0  72  -1  48  48  24  -1   3   3   5   3   0  48  48  24   5 
 -1   8  50   6   6  -1   0  -1   8   8   8   8  -1  50   0   0   8   8 
 -1   8  50   6  -1   0   0   8  -1   8   8   8   8  50   0   0   8   8 
 -1   5  26  12  12   8   8   0   0   5   5   5   5  26   8   8   0   5 
 -1  -1  -1  -1  -1  -1  -1  -1  -1  -1  -1  -1  -1  -1  -1  -1  -1   0 
EOF
